21° run output:
{
    "Function": "ClusterB300.tsp",
    "Problem dimension": [
        202,
        286,
        188,
        173,
        80,
        114,
        20,
        166,
        152,
        34,
        90,
        31,
        49,
        43,
        143,
        153,
        15,
        132,
        248,
        39,
        216,
        27,
        60,
        140,
        241,
        198,
        291,
        175,
        281,
        277,
        78,
        221,
        77,
        66,
        260,
        65,
        251,
        225,
        6,
        54,
        159,
        12,
        75,
        183,
        236,
        219,
        29,
        245,
        48,
        1,
        106,
        5,
        204,
        122,
        285,
        101,
        165,
        103,
        234,
        11,
        146,
        289,
        257,
        26,
        61,
        130,
        139,
        97,
        169,
        53,
        161,
        150,
        7,
        125,
        170,
        218,
        192,
        95,
        194,
        187,
        275,
        22,
        55,
        195,
        72,
        158,
        167,
        133,
        82,
        33,
        200,
        112,
        238,
        110,
        56,
        288,
        279,
        299,
        18,
        88,
        70,
        174,
        58,
        28,
        123,
        44,
        182,
        115,
        209,
        284,
        13,
        208,
        267,
        230,
        37,
        121,
        57,
        272,
        199,
        262,
        92,
        83,
        89,
        9,
        293,
        233,
        290,
        201,
        21,
        255,
        118,
        127,
        100,
        181,
        52,
        160,
        215,
        68,
        214,
        228,
        116,
        287,
        91,
        69,
        36,
        151,
        109,
        129,
        73,
        108,
        136,
        231,
        156,
        134,
        155,
        71,
        206,
        145,
        32,
        2,
        240,
        239,
        273,
        51,
        163,
        210,
        249,
        296,
        256,
        235,
        232,
        164,
        63,
        298,
        104,
        196,
        224,
        168,
        64,
        246,
        50,
        222,
        94,
        184,
        268,
        179,
        79,
        207,
        185,
        217,
        98,
        149,
        263,
        154,
        144,
        81,
        40,
        107,
        59,
        126,
        266,
        253,
        254,
        227,
        16,
        25,
        86,
        264,
        17,
        8,
        131,
        265,
        211,
        0,
        111,
        67,
        176,
        24,
        189,
        76,
        117,
        252,
        280,
        84,
        177,
        250,
        276,
        128,
        282,
        105,
        87,
        47,
        243,
        74,
        124,
        203,
        162,
        186,
        35,
        10,
        292,
        223,
        226,
        270,
        62,
        178,
        261,
        142,
        3,
        297,
        4,
        213,
        191,
        220,
        193,
        85,
        93,
        45,
        41,
        148,
        119,
        135,
        102,
        247,
        271,
        244,
        99,
        141,
        237,
        229,
        295,
        269,
        172,
        205,
        242,
        30,
        138,
        171,
        258,
        42,
        278,
        197,
        38,
        14,
        283,
        294,
        96,
        157,
        147,
        212,
        274,
        46,
        180,
        190,
        120,
        259,
        19,
        137,
        113,
        23
    ],
    "Global Optimum": 0,
    "Algorithm": "Genetic algorithm",
    "Parameters": {
        "population": 30,
        "offspring": 30,
        "mutation probability": 0.0033333333333333335,
        "crossover probability": 0.9
    },
    "Fitness": 253538,
    "Solution": [
        202,
        286,
        188,
        173,
        80,
        114,
        20,
        166,
        152,
        34,
        90,
        31,
        49,
        43,
        143,
        153,
        15,
        132,
        248,
        39,
        216,
        27,
        60,
        140,
        241,
        198,
        291,
        175,
        281,
        277,
        78,
        221,
        77,
        66,
        260,
        65,
        251,
        225,
        6,
        54,
        159,
        12,
        75,
        183,
        236,
        219,
        29,
        245,
        48,
        1,
        106,
        5,
        204,
        122,
        285,
        101,
        165,
        103,
        234,
        11,
        146,
        289,
        257,
        26,
        61,
        130,
        139,
        97,
        169,
        53,
        161,
        150,
        7,
        125,
        170,
        218,
        192,
        95,
        194,
        187,
        275,
        22,
        55,
        195,
        72,
        158,
        167,
        133,
        82,
        33,
        200,
        112,
        238,
        110,
        56,
        288,
        279,
        299,
        18,
        88,
        70,
        174,
        58,
        28,
        123,
        44,
        182,
        115,
        209,
        284,
        13,
        208,
        267,
        230,
        37,
        121,
        57,
        272,
        199,
        262,
        92,
        83,
        89,
        9,
        293,
        233,
        290,
        201,
        21,
        255,
        118,
        127,
        100,
        181,
        52,
        160,
        215,
        68,
        214,
        228,
        116,
        287,
        91,
        69,
        36,
        151,
        109,
        129,
        73,
        108,
        136,
        231,
        156,
        134,
        155,
        71,
        206,
        145,
        32,
        2,
        240,
        239,
        273,
        51,
        163,
        210,
        249,
        296,
        256,
        235,
        232,
        164,
        63,
        298,
        104,
        196,
        224,
        168,
        64,
        246,
        50,
        222,
        94,
        184,
        268,
        179,
        79,
        207,
        185,
        217,
        98,
        149,
        263,
        154,
        144,
        81,
        40,
        107,
        59,
        126,
        266,
        253,
        254,
        227,
        16,
        25,
        86,
        264,
        17,
        8,
        131,
        265,
        211,
        0,
        111,
        67,
        176,
        24,
        189,
        76,
        117,
        252,
        280,
        84,
        177,
        250,
        276,
        128,
        282,
        105,
        87,
        47,
        243,
        74,
        124,
        203,
        162,
        186,
        35,
        10,
        292,
        223,
        226,
        270,
        62,
        178,
        261,
        142,
        3,
        297,
        4,
        213,
        191,
        220,
        193,
        85,
        93,
        45,
        41,
        148,
        119,
        135,
        102,
        247,
        271,
        244,
        99,
        141,
        237,
        229,
        295,
        269,
        172,
        205,
        242,
        30,
        138,
        171,
        258,
        42,
        278,
        197,
        38,
        14,
        283,
        294,
        96,
        157,
        147,
        212,
        274,
        46,
        180,
        190,
        120,
        259,
        19,
        137,
        113,
        23
    ],
    "Nb of functions evaluations": 400020,
    "Computational time in seconds": 747.5861175060272,
    "Stopping criterion in evaluations": 400000
}